p cnf 14 64
-2 -4 -5 0
-4 -5 13 0
7 9 -14 0
-9 10 -11 0
3 9 11 0
5 -6 14 0
-6 9 -10 0
-2 -4 9 0
3 -11 14 0
3 5 -11 0
-3 5 9 0
-9 11 12 0
4 -6 7 0
9 -10 -12 0
8 -11 14 0
4 -6 -12 0
2 3 -12 0
4 6 7 0
3 4 -8 0
-6 10 -13 0
6 -9 -13 0
3 -4 -14 0
5 -6 -9 0
6 -10 -13 0
4 7 -10 0
-1 -6 -14 0
-3 -6 9 0
-5 12 -14 0
6 9 12 0
6 11 -13 0
-1 -4 13 0
-5 -7 -12 0
-2 -5 12 0
4 -9 -12 0
1 -6 -8 0
3 -11 -13 0
4 9 11 0
-3 7 -12 0
1 -8 -14 0
-8 9 -10 0
-4 -8 13 0
-3 6 -13 0
1 2 -13 0
-6 12 14 0
6 9 -10 0
-4 -10 11 0
11 13 -14 0
3 4 -6 0
8 -9 -13 0
-11 -12 -14 0
-6 7 12 0
3 -11 13 0
2 -7 -12 0
6 -7 13 0
1 9 -10 0
-1 7 13 0
2 5 6 0
-5 -8 -12 0
5 -7 -8 0
4 12 14 0
-6 -8 12 0
-5 9 10 0
-6 7 -11 0
-1 7 8 0
